(set-info :category "industrial")
(set-info :status sat)
(declare-fun x00 () (_ BitVec 8))
(declare-fun x01 () (_ BitVec 8))
(declare-fun x02 () (_ BitVec 8))
(declare-fun x03 () (_ BitVec 8))
(declare-fun x04 () (_ BitVec 8))
(declare-fun x11 () (_ BitVec 8))
(declare-fun x13 () (_ BitVec 8))
(declare-fun x14 () (_ BitVec 8))
(declare-fun x16 () (_ BitVec 8))
(declare-fun x17 () (_ BitVec 8))
(declare-fun x18 () (_ BitVec 8))
(declare-fun x21 () (_ BitVec 8))
(declare-fun x22 () (_ BitVec 8))
(declare-fun x23 () (_ BitVec 8))
(declare-fun x26 () (_ BitVec 8))
(declare-fun x27 () (_ BitVec 8))
(declare-fun x28 () (_ BitVec 8))
(declare-fun x30 () (_ BitVec 8))
(declare-fun x31 () (_ BitVec 8))
(declare-fun x32 () (_ BitVec 8))
(declare-fun x34 () (_ BitVec 8))
(declare-fun x35 () (_ BitVec 8))
(declare-fun x36 () (_ BitVec 8))
(declare-fun x37 () (_ BitVec 8))
(declare-fun x41 () (_ BitVec 8))
(declare-fun x43 () (_ BitVec 8))
(declare-fun x44 () (_ BitVec 8))
(declare-fun x45 () (_ BitVec 8))
(declare-fun x46 () (_ BitVec 8))
(declare-fun x51 () (_ BitVec 8))
(declare-fun x52 () (_ BitVec 8))
(declare-fun x53 () (_ BitVec 8))
(declare-fun x56 () (_ BitVec 8))
(declare-fun x57 () (_ BitVec 8))
(declare-fun x58 () (_ BitVec 8))
(declare-fun x61 () (_ BitVec 8))
(declare-fun x63 () (_ BitVec 8))
(declare-fun x64 () (_ BitVec 8))
(declare-fun x65 () (_ BitVec 8))
(declare-fun x66 () (_ BitVec 8))
(declare-fun x68 () (_ BitVec 8))
(declare-fun x72 () (_ BitVec 8))
(declare-fun x75 () (_ BitVec 8))
(declare-fun x76 () (_ BitVec 8))
(declare-fun x81 () (_ BitVec 8))
(declare-fun x84 () (_ BitVec 8))
(declare-fun x85 () (_ BitVec 8))
(assert (bvult x00 (_ bv9 8)))
(assert (bvult x01 (_ bv9 8)))
(assert (bvult x02 (_ bv9 8)))
(assert (bvult x03 (_ bv9 8)))
(assert (bvult x04 (_ bv9 8)))
(assert (bvult x11 (_ bv9 8)))
(assert (bvult x13 (_ bv9 8)))
(assert (bvult x14 (_ bv9 8)))
(assert (bvult x16 (_ bv9 8)))
(assert (bvult x17 (_ bv9 8)))
(assert (bvult x18 (_ bv9 8)))
(assert (bvult x21 (_ bv9 8)))
(assert (bvult x22 (_ bv9 8)))
(assert (bvult x23 (_ bv9 8)))
(assert (bvult x26 (_ bv9 8)))
(assert (bvult x27 (_ bv9 8)))
(assert (bvult x28 (_ bv9 8)))
(assert (bvult x30 (_ bv9 8)))
(assert (bvult x31 (_ bv9 8)))
(assert (bvult x32 (_ bv9 8)))
(assert (bvult x34 (_ bv9 8)))
(assert (bvult x35 (_ bv9 8)))
(assert (bvult x36 (_ bv9 8)))
(assert (bvult x37 (_ bv9 8)))
(assert (bvult x41 (_ bv9 8)))
(assert (bvult x43 (_ bv9 8)))
(assert (bvult x44 (_ bv9 8)))
(assert (bvult x45 (_ bv9 8)))
(assert (bvult x46 (_ bv9 8)))
(assert (bvult x51 (_ bv9 8)))
(assert (bvult x52 (_ bv9 8)))
(assert (bvult x53 (_ bv9 8)))
(assert (bvult x56 (_ bv9 8)))
(assert (bvult x57 (_ bv9 8)))
(assert (bvult x58 (_ bv9 8)))
(assert (bvult x61 (_ bv9 8)))
(assert (bvult x63 (_ bv9 8)))
(assert (bvult x64 (_ bv9 8)))
(assert (bvult x65 (_ bv9 8)))
(assert (bvult x66 (_ bv9 8)))
(assert (bvult x68 (_ bv9 8)))
(assert (bvult x72 (_ bv9 8)))
(assert (bvult x75 (_ bv9 8)))
(assert (bvult x76 (_ bv9 8)))
(assert (bvult x81 (_ bv9 8)))
(assert (bvult x84 (_ bv9 8)))
(assert (bvult x85 (_ bv9 8)))
(assert (not (= x00 x01)))
(assert (not (= x00 x02)))
(assert (not (= x00 x03)))
(assert (not (= x00 x04)))
(assert (not (= x00 (_ bv9 8))))
(assert (not (= x00 (_ bv3 8))))
(assert (not (= x00 (_ bv2 8))))
(assert (not (= x00 (_ bv4 8))))
(assert (not (= x01 x02)))
(assert (not (= x01 x03)))
(assert (not (= x01 x04)))
(assert (not (= x01 (_ bv9 8))))
(assert (not (= x01 (_ bv3 8))))
(assert (not (= x01 (_ bv2 8))))
(assert (not (= x01 (_ bv4 8))))
(assert (not (= x02 x03)))
(assert (not (= x02 x04)))
(assert (not (= x02 (_ bv9 8))))
(assert (not (= x02 (_ bv3 8))))
(assert (not (= x02 (_ bv2 8))))
(assert (not (= x02 (_ bv4 8))))
(assert (not (= x03 x04)))
(assert (not (= x03 (_ bv9 8))))
(assert (not (= x03 (_ bv3 8))))
(assert (not (= x03 (_ bv2 8))))
(assert (not (= x03 (_ bv4 8))))
(assert (not (= x04 (_ bv9 8))))
(assert (not (= x04 (_ bv3 8))))
(assert (not (= x04 (_ bv2 8))))
(assert (not (= x04 (_ bv4 8))))
(assert (not (= (_ bv9 8) (_ bv3 8))))
(assert (not (= (_ bv9 8) (_ bv2 8))))
(assert (not (= (_ bv9 8) (_ bv4 8))))
(assert (not (= (_ bv3 8) (_ bv2 8))))
(assert (not (= (_ bv3 8) (_ bv4 8))))
(assert (not (= (_ bv2 8) (_ bv4 8))))
(assert (not (= (_ bv5 8) x11)))
(assert (not (= (_ bv5 8) (_ bv2 8))))
(assert (not (= (_ bv5 8) x13)))
(assert (not (= (_ bv5 8) x14)))
(assert (not (= (_ bv5 8) (_ bv6 8))))
(assert (not (= (_ bv5 8) x16)))
(assert (not (= (_ bv5 8) x17)))
(assert (not (= (_ bv5 8) x18)))
(assert (not (= x11 (_ bv2 8))))
(assert (not (= x11 x13)))
(assert (not (= x11 x14)))
(assert (not (= x11 (_ bv6 8))))
(assert (not (= x11 x16)))
(assert (not (= x11 x17)))
(assert (not (= x11 x18)))
(assert (not (= (_ bv2 8) x13)))
(assert (not (= (_ bv2 8) x14)))
(assert (not (= (_ bv2 8) (_ bv6 8))))
(assert (not (= (_ bv2 8) x16)))
(assert (not (= (_ bv2 8) x17)))
(assert (not (= (_ bv2 8) x18)))
(assert (not (= x13 x14)))
(assert (not (= x13 (_ bv6 8))))
(assert (not (= x13 x16)))
(assert (not (= x13 x17)))
(assert (not (= x13 x18)))
(assert (not (= x14 (_ bv6 8))))
(assert (not (= x14 x16)))
(assert (not (= x14 x17)))
(assert (not (= x14 x18)))
(assert (not (= (_ bv6 8) x16)))
(assert (not (= (_ bv6 8) x17)))
(assert (not (= (_ bv6 8) x18)))
(assert (not (= x16 x17)))
(assert (not (= x16 x18)))
(assert (not (= x17 x18)))
(assert (not (= (_ bv1 8) x21)))
(assert (not (= (_ bv1 8) x22)))
(assert (not (= (_ bv1 8) x23)))
(assert (not (= (_ bv1 8) (_ bv8 8))))
(assert (not (= (_ bv1 8) (_ bv4 8))))
(assert (not (= (_ bv1 8) x26)))
(assert (not (= (_ bv1 8) x27)))
(assert (not (= (_ bv1 8) x28)))
(assert (not (= x21 x22)))
(assert (not (= x21 x23)))
(assert (not (= x21 (_ bv8 8))))
(assert (not (= x21 (_ bv4 8))))
(assert (not (= x21 x26)))
(assert (not (= x21 x27)))
(assert (not (= x21 x28)))
(assert (not (= x22 x23)))
(assert (not (= x22 (_ bv8 8))))
(assert (not (= x22 (_ bv4 8))))
(assert (not (= x22 x26)))
(assert (not (= x22 x27)))
(assert (not (= x22 x28)))
(assert (not (= x23 (_ bv8 8))))
(assert (not (= x23 (_ bv4 8))))
(assert (not (= x23 x26)))
(assert (not (= x23 x27)))
(assert (not (= x23 x28)))
(assert (not (= (_ bv8 8) (_ bv4 8))))
(assert (not (= (_ bv8 8) x26)))
(assert (not (= (_ bv8 8) x27)))
(assert (not (= (_ bv8 8) x28)))
(assert (not (= (_ bv4 8) x26)))
(assert (not (= (_ bv4 8) x27)))
(assert (not (= (_ bv4 8) x28)))
(assert (not (= x26 x27)))
(assert (not (= x26 x28)))
(assert (not (= x27 x28)))
(assert (not (= x30 x31)))
(assert (not (= x30 x32)))
(assert (not (= x30 (_ bv7 8))))
(assert (not (= x30 x34)))
(assert (not (= x30 x35)))
(assert (not (= x30 x36)))
(assert (not (= x30 x37)))
(assert (not (= x30 (_ bv5 8))))
(assert (not (= x31 x32)))
(assert (not (= x31 (_ bv7 8))))
(assert (not (= x31 x34)))
(assert (not (= x31 x35)))
(assert (not (= x31 x36)))
(assert (not (= x31 x37)))
(assert (not (= x31 (_ bv5 8))))
(assert (not (= x32 (_ bv7 8))))
(assert (not (= x32 x34)))
(assert (not (= x32 x35)))
(assert (not (= x32 x36)))
(assert (not (= x32 x37)))
(assert (not (= x32 (_ bv5 8))))
(assert (not (= (_ bv7 8) x34)))
(assert (not (= (_ bv7 8) x35)))
(assert (not (= (_ bv7 8) x36)))
(assert (not (= (_ bv7 8) x37)))
(assert (not (= (_ bv7 8) (_ bv5 8))))
(assert (not (= x34 x35)))
(assert (not (= x34 x36)))
(assert (not (= x34 x37)))
(assert (not (= x34 (_ bv5 8))))
(assert (not (= x35 x36)))
(assert (not (= x35 x37)))
(assert (not (= x35 (_ bv5 8))))
(assert (not (= x36 x37)))
(assert (not (= x36 (_ bv5 8))))
(assert (not (= x37 (_ bv5 8))))
(assert (not (= (_ bv8 8) x41)))
(assert (not (= (_ bv8 8) (_ bv6 8))))
(assert (not (= (_ bv8 8) x43)))
(assert (not (= (_ bv8 8) x44)))
(assert (not (= (_ bv8 8) x45)))
(assert (not (= (_ bv8 8) x46)))
(assert (not (= (_ bv8 8) (_ bv7 8))))
(assert (not (= (_ bv8 8) (_ bv1 8))))
(assert (not (= x41 (_ bv6 8))))
(assert (not (= x41 x43)))
(assert (not (= x41 x44)))
(assert (not (= x41 x45)))
(assert (not (= x41 x46)))
(assert (not (= x41 (_ bv7 8))))
(assert (not (= x41 (_ bv1 8))))
(assert (not (= (_ bv6 8) x43)))
(assert (not (= (_ bv6 8) x44)))
(assert (not (= (_ bv6 8) x45)))
(assert (not (= (_ bv6 8) x46)))
(assert (not (= (_ bv6 8) (_ bv7 8))))
(assert (not (= (_ bv6 8) (_ bv1 8))))
(assert (not (= x43 x44)))
(assert (not (= x43 x45)))
(assert (not (= x43 x46)))
(assert (not (= x43 (_ bv7 8))))
(assert (not (= x43 (_ bv1 8))))
(assert (not (= x44 x45)))
(assert (not (= x44 x46)))
(assert (not (= x44 (_ bv7 8))))
(assert (not (= x44 (_ bv1 8))))
(assert (not (= x45 x46)))
(assert (not (= x45 (_ bv7 8))))
(assert (not (= x45 (_ bv1 8))))
(assert (not (= x46 (_ bv7 8))))
(assert (not (= x46 (_ bv1 8))))
(assert (not (= (_ bv7 8) (_ bv1 8))))
(assert (not (= (_ bv9 8) x51)))
(assert (not (= (_ bv9 8) x52)))
(assert (not (= (_ bv9 8) x53)))
(assert (not (= (_ bv9 8) (_ bv1 8))))
(assert (not (= (_ bv9 8) (_ bv8 8))))
(assert (not (= (_ bv9 8) x56)))
(assert (not (= (_ bv9 8) x57)))
(assert (not (= (_ bv9 8) x58)))
(assert (not (= x51 x52)))
(assert (not (= x51 x53)))
(assert (not (= x51 (_ bv1 8))))
(assert (not (= x51 (_ bv8 8))))
(assert (not (= x51 x56)))
(assert (not (= x51 x57)))
(assert (not (= x51 x58)))
(assert (not (= x52 x53)))
(assert (not (= x52 (_ bv1 8))))
(assert (not (= x52 (_ bv8 8))))
(assert (not (= x52 x56)))
(assert (not (= x52 x57)))
(assert (not (= x52 x58)))
(assert (not (= x53 (_ bv1 8))))
(assert (not (= x53 (_ bv8 8))))
(assert (not (= x53 x56)))
(assert (not (= x53 x57)))
(assert (not (= x53 x58)))
(assert (not (= (_ bv1 8) (_ bv8 8))))
(assert (not (= (_ bv1 8) x56)))
(assert (not (= (_ bv1 8) x57)))
(assert (not (= (_ bv1 8) x58)))
(assert (not (= (_ bv8 8) x56)))
(assert (not (= (_ bv8 8) x57)))
(assert (not (= (_ bv8 8) x58)))
(assert (not (= x56 x57)))
(assert (not (= x56 x58)))
(assert (not (= x57 x58)))
(assert (not (= (_ bv7 8) x61)))
(assert (not (= (_ bv7 8) (_ bv1 8))))
(assert (not (= (_ bv7 8) x63)))
(assert (not (= (_ bv7 8) x64)))
(assert (not (= (_ bv7 8) x65)))
(assert (not (= (_ bv7 8) x66)))
(assert (not (= (_ bv7 8) (_ bv5 8))))
(assert (not (= (_ bv7 8) x68)))
(assert (not (= x61 (_ bv1 8))))
(assert (not (= x61 x63)))
(assert (not (= x61 x64)))
(assert (not (= x61 x65)))
(assert (not (= x61 x66)))
(assert (not (= x61 (_ bv5 8))))
(assert (not (= x61 x68)))
(assert (not (= (_ bv1 8) x63)))
(assert (not (= (_ bv1 8) x64)))
(assert (not (= (_ bv1 8) x65)))
(assert (not (= (_ bv1 8) x66)))
(assert (not (= (_ bv1 8) (_ bv5 8))))
(assert (not (= (_ bv1 8) x68)))
(assert (not (= x63 x64)))
(assert (not (= x63 x65)))
(assert (not (= x63 x66)))
(assert (not (= x63 (_ bv5 8))))
(assert (not (= x63 x68)))
(assert (not (= x64 x65)))
(assert (not (= x64 x66)))
(assert (not (= x64 (_ bv5 8))))
(assert (not (= x64 x68)))
(assert (not (= x65 x66)))
(assert (not (= x65 (_ bv5 8))))
(assert (not (= x65 x68)))
(assert (not (= x66 (_ bv5 8))))
(assert (not (= x66 x68)))
(assert (not (= (_ bv5 8) x68)))
(assert (not (= (_ bv4 8) (_ bv9 8))))
(assert (not (= (_ bv4 8) x72)))
(assert (not (= (_ bv4 8) (_ bv5 8))))
(assert (not (= (_ bv4 8) (_ bv2 8))))
(assert (not (= (_ bv4 8) x75)))
(assert (not (= (_ bv4 8) x76)))
(assert (not (= (_ bv4 8) (_ bv8 8))))
(assert (not (= (_ bv4 8) (_ bv6 8))))
(assert (not (= (_ bv9 8) x72)))
(assert (not (= (_ bv9 8) (_ bv5 8))))
(assert (not (= (_ bv9 8) (_ bv2 8))))
(assert (not (= (_ bv9 8) x75)))
(assert (not (= (_ bv9 8) x76)))
(assert (not (= (_ bv9 8) (_ bv8 8))))
(assert (not (= (_ bv9 8) (_ bv6 8))))
(assert (not (= x72 (_ bv5 8))))
(assert (not (= x72 (_ bv2 8))))
(assert (not (= x72 x75)))
(assert (not (= x72 x76)))
(assert (not (= x72 (_ bv8 8))))
(assert (not (= x72 (_ bv6 8))))
(assert (not (= (_ bv5 8) (_ bv2 8))))
(assert (not (= (_ bv5 8) x75)))
(assert (not (= (_ bv5 8) x76)))
(assert (not (= (_ bv5 8) (_ bv8 8))))
(assert (not (= (_ bv5 8) (_ bv6 8))))
(assert (not (= (_ bv2 8) x75)))
(assert (not (= (_ bv2 8) x76)))
(assert (not (= (_ bv2 8) (_ bv8 8))))
(assert (not (= (_ bv2 8) (_ bv6 8))))
(assert (not (= x75 x76)))
(assert (not (= x75 (_ bv8 8))))
(assert (not (= x75 (_ bv6 8))))
(assert (not (= x76 (_ bv8 8))))
(assert (not (= x76 (_ bv6 8))))
(assert (not (= (_ bv8 8) (_ bv6 8))))
(assert (not (= (_ bv2 8) x81)))
(assert (not (= (_ bv2 8) (_ bv8 8))))
(assert (not (= (_ bv2 8) (_ bv6 8))))
(assert (not (= (_ bv2 8) x84)))
(assert (not (= (_ bv2 8) x85)))
(assert (not (= (_ bv2 8) (_ bv7 8))))
(assert (not (= (_ bv2 8) (_ bv4 8))))
(assert (not (= (_ bv2 8) (_ bv3 8))))
(assert (not (= x81 (_ bv8 8))))
(assert (not (= x81 (_ bv6 8))))
(assert (not (= x81 x84)))
(assert (not (= x81 x85)))
(assert (not (= x81 (_ bv7 8))))
(assert (not (= x81 (_ bv4 8))))
(assert (not (= x81 (_ bv3 8))))
(assert (not (= (_ bv8 8) (_ bv6 8))))
(assert (not (= (_ bv8 8) x84)))
(assert (not (= (_ bv8 8) x85)))
(assert (not (= (_ bv8 8) (_ bv7 8))))
(assert (not (= (_ bv8 8) (_ bv4 8))))
(assert (not (= (_ bv8 8) (_ bv3 8))))
(assert (not (= (_ bv6 8) x84)))
(assert (not (= (_ bv6 8) x85)))
(assert (not (= (_ bv6 8) (_ bv7 8))))
(assert (not (= (_ bv6 8) (_ bv4 8))))
(assert (not (= (_ bv6 8) (_ bv3 8))))
(assert (not (= x84 x85)))
(assert (not (= x84 (_ bv7 8))))
(assert (not (= x84 (_ bv4 8))))
(assert (not (= x84 (_ bv3 8))))
(assert (not (= x85 (_ bv7 8))))
(assert (not (= x85 (_ bv4 8))))
(assert (not (= x85 (_ bv3 8))))
(assert (not (= (_ bv7 8) (_ bv4 8))))
(assert (not (= (_ bv7 8) (_ bv3 8))))
(assert (not (= (_ bv4 8) (_ bv3 8))))
(assert (not (= x00 (_ bv5 8))))
(assert (not (= x00 (_ bv1 8))))
(assert (not (= x00 x30)))
(assert (not (= x00 (_ bv8 8))))
(assert (not (= x00 (_ bv9 8))))
(assert (not (= x00 (_ bv7 8))))
(assert (not (= x00 (_ bv4 8))))
(assert (not (= x00 (_ bv2 8))))
(assert (not (= (_ bv5 8) (_ bv1 8))))
(assert (not (= (_ bv5 8) x30)))
(assert (not (= (_ bv5 8) (_ bv8 8))))
(assert (not (= (_ bv5 8) (_ bv9 8))))
(assert (not (= (_ bv5 8) (_ bv7 8))))
(assert (not (= (_ bv5 8) (_ bv4 8))))
(assert (not (= (_ bv5 8) (_ bv2 8))))
(assert (not (= (_ bv1 8) x30)))
(assert (not (= (_ bv1 8) (_ bv8 8))))
(assert (not (= (_ bv1 8) (_ bv9 8))))
(assert (not (= (_ bv1 8) (_ bv7 8))))
(assert (not (= (_ bv1 8) (_ bv4 8))))
(assert (not (= (_ bv1 8) (_ bv2 8))))
(assert (not (= x30 (_ bv8 8))))
(assert (not (= x30 (_ bv9 8))))
(assert (not (= x30 (_ bv7 8))))
(assert (not (= x30 (_ bv4 8))))
(assert (not (= x30 (_ bv2 8))))
(assert (not (= (_ bv8 8) (_ bv9 8))))
(assert (not (= (_ bv8 8) (_ bv7 8))))
(assert (not (= (_ bv8 8) (_ bv4 8))))
(assert (not (= (_ bv8 8) (_ bv2 8))))
(assert (not (= (_ bv9 8) (_ bv7 8))))
(assert (not (= (_ bv9 8) (_ bv4 8))))
(assert (not (= (_ bv9 8) (_ bv2 8))))
(assert (not (= (_ bv7 8) (_ bv4 8))))
(assert (not (= (_ bv7 8) (_ bv2 8))))
(assert (not (= (_ bv4 8) (_ bv2 8))))
(assert (not (= x01 x11)))
(assert (not (= x01 x21)))
(assert (not (= x01 x31)))
(assert (not (= x01 x41)))
(assert (not (= x01 x51)))
(assert (not (= x01 x61)))
(assert (not (= x01 (_ bv9 8))))
(assert (not (= x01 x81)))
(assert (not (= x11 x21)))
(assert (not (= x11 x31)))
(assert (not (= x11 x41)))
(assert (not (= x11 x51)))
(assert (not (= x11 x61)))
(assert (not (= x11 (_ bv9 8))))
(assert (not (= x11 x81)))
(assert (not (= x21 x31)))
(assert (not (= x21 x41)))
(assert (not (= x21 x51)))
(assert (not (= x21 x61)))
(assert (not (= x21 (_ bv9 8))))
(assert (not (= x21 x81)))
(assert (not (= x31 x41)))
(assert (not (= x31 x51)))
(assert (not (= x31 x61)))
(assert (not (= x31 (_ bv9 8))))
(assert (not (= x31 x81)))
(assert (not (= x41 x51)))
(assert (not (= x41 x61)))
(assert (not (= x41 (_ bv9 8))))
(assert (not (= x41 x81)))
(assert (not (= x51 x61)))
(assert (not (= x51 (_ bv9 8))))
(assert (not (= x51 x81)))
(assert (not (= x61 (_ bv9 8))))
(assert (not (= x61 x81)))
(assert (not (= (_ bv9 8) x81)))
(assert (not (= x02 (_ bv2 8))))
(assert (not (= x02 x22)))
(assert (not (= x02 x32)))
(assert (not (= x02 (_ bv6 8))))
(assert (not (= x02 x52)))
(assert (not (= x02 (_ bv1 8))))
(assert (not (= x02 x72)))
(assert (not (= x02 (_ bv8 8))))
(assert (not (= (_ bv2 8) x22)))
(assert (not (= (_ bv2 8) x32)))
(assert (not (= (_ bv2 8) (_ bv6 8))))
(assert (not (= (_ bv2 8) x52)))
(assert (not (= (_ bv2 8) (_ bv1 8))))
(assert (not (= (_ bv2 8) x72)))
(assert (not (= (_ bv2 8) (_ bv8 8))))
(assert (not (= x22 x32)))
(assert (not (= x22 (_ bv6 8))))
(assert (not (= x22 x52)))
(assert (not (= x22 (_ bv1 8))))
(assert (not (= x22 x72)))
(assert (not (= x22 (_ bv8 8))))
(assert (not (= x32 (_ bv6 8))))
(assert (not (= x32 x52)))
(assert (not (= x32 (_ bv1 8))))
(assert (not (= x32 x72)))
(assert (not (= x32 (_ bv8 8))))
(assert (not (= (_ bv6 8) x52)))
(assert (not (= (_ bv6 8) (_ bv1 8))))
(assert (not (= (_ bv6 8) x72)))
(assert (not (= (_ bv6 8) (_ bv8 8))))
(assert (not (= x52 (_ bv1 8))))
(assert (not (= x52 x72)))
(assert (not (= x52 (_ bv8 8))))
(assert (not (= (_ bv1 8) x72)))
(assert (not (= (_ bv1 8) (_ bv8 8))))
(assert (not (= x72 (_ bv8 8))))
(assert (not (= x03 x13)))
(assert (not (= x03 x23)))
(assert (not (= x03 (_ bv7 8))))
(assert (not (= x03 x43)))
(assert (not (= x03 x53)))
(assert (not (= x03 x63)))
(assert (not (= x03 (_ bv5 8))))
(assert (not (= x03 (_ bv6 8))))
(assert (not (= x13 x23)))
(assert (not (= x13 (_ bv7 8))))
(assert (not (= x13 x43)))
(assert (not (= x13 x53)))
(assert (not (= x13 x63)))
(assert (not (= x13 (_ bv5 8))))
(assert (not (= x13 (_ bv6 8))))
(assert (not (= x23 (_ bv7 8))))
(assert (not (= x23 x43)))
(assert (not (= x23 x53)))
(assert (not (= x23 x63)))
(assert (not (= x23 (_ bv5 8))))
(assert (not (= x23 (_ bv6 8))))
(assert (not (= (_ bv7 8) x43)))
(assert (not (= (_ bv7 8) x53)))
(assert (not (= (_ bv7 8) x63)))
(assert (not (= (_ bv7 8) (_ bv5 8))))
(assert (not (= (_ bv7 8) (_ bv6 8))))
(assert (not (= x43 x53)))
(assert (not (= x43 x63)))
(assert (not (= x43 (_ bv5 8))))
(assert (not (= x43 (_ bv6 8))))
(assert (not (= x53 x63)))
(assert (not (= x53 (_ bv5 8))))
(assert (not (= x53 (_ bv6 8))))
(assert (not (= x63 (_ bv5 8))))
(assert (not (= x63 (_ bv6 8))))
(assert (not (= (_ bv5 8) (_ bv6 8))))
(assert (not (= x04 x14)))
(assert (not (= x04 (_ bv8 8))))
(assert (not (= x04 x34)))
(assert (not (= x04 x44)))
(assert (not (= x04 (_ bv1 8))))
(assert (not (= x04 x64)))
(assert (not (= x04 (_ bv2 8))))
(assert (not (= x04 x84)))
(assert (not (= x14 (_ bv8 8))))
(assert (not (= x14 x34)))
(assert (not (= x14 x44)))
(assert (not (= x14 (_ bv1 8))))
(assert (not (= x14 x64)))
(assert (not (= x14 (_ bv2 8))))
(assert (not (= x14 x84)))
(assert (not (= (_ bv8 8) x34)))
(assert (not (= (_ bv8 8) x44)))
(assert (not (= (_ bv8 8) (_ bv1 8))))
(assert (not (= (_ bv8 8) x64)))
(assert (not (= (_ bv8 8) (_ bv2 8))))
(assert (not (= (_ bv8 8) x84)))
(assert (not (= x34 x44)))
(assert (not (= x34 (_ bv1 8))))
(assert (not (= x34 x64)))
(assert (not (= x34 (_ bv2 8))))
(assert (not (= x34 x84)))
(assert (not (= x44 (_ bv1 8))))
(assert (not (= x44 x64)))
(assert (not (= x44 (_ bv2 8))))
(assert (not (= x44 x84)))
(assert (not (= (_ bv1 8) x64)))
(assert (not (= (_ bv1 8) (_ bv2 8))))
(assert (not (= (_ bv1 8) x84)))
(assert (not (= x64 (_ bv2 8))))
(assert (not (= x64 x84)))
(assert (not (= (_ bv2 8) x84)))
(assert (not (= (_ bv9 8) (_ bv6 8))))
(assert (not (= (_ bv9 8) (_ bv4 8))))
(assert (not (= (_ bv9 8) x35)))
(assert (not (= (_ bv9 8) x45)))
(assert (not (= (_ bv9 8) (_ bv8 8))))
(assert (not (= (_ bv9 8) x65)))
(assert (not (= (_ bv9 8) x75)))
(assert (not (= (_ bv9 8) x85)))
(assert (not (= (_ bv6 8) (_ bv4 8))))
(assert (not (= (_ bv6 8) x35)))
(assert (not (= (_ bv6 8) x45)))
(assert (not (= (_ bv6 8) (_ bv8 8))))
(assert (not (= (_ bv6 8) x65)))
(assert (not (= (_ bv6 8) x75)))
(assert (not (= (_ bv6 8) x85)))
(assert (not (= (_ bv4 8) x35)))
(assert (not (= (_ bv4 8) x45)))
(assert (not (= (_ bv4 8) (_ bv8 8))))
(assert (not (= (_ bv4 8) x65)))
(assert (not (= (_ bv4 8) x75)))
(assert (not (= (_ bv4 8) x85)))
(assert (not (= x35 x45)))
(assert (not (= x35 (_ bv8 8))))
(assert (not (= x35 x65)))
(assert (not (= x35 x75)))
(assert (not (= x35 x85)))
(assert (not (= x45 (_ bv8 8))))
(assert (not (= x45 x65)))
(assert (not (= x45 x75)))
(assert (not (= x45 x85)))
(assert (not (= (_ bv8 8) x65)))
(assert (not (= (_ bv8 8) x75)))
(assert (not (= (_ bv8 8) x85)))
(assert (not (= x65 x75)))
(assert (not (= x65 x85)))
(assert (not (= x75 x85)))
(assert (not (= (_ bv3 8) x16)))
(assert (not (= (_ bv3 8) x26)))
(assert (not (= (_ bv3 8) x36)))
(assert (not (= (_ bv3 8) x46)))
(assert (not (= (_ bv3 8) x56)))
(assert (not (= (_ bv3 8) x66)))
(assert (not (= (_ bv3 8) x76)))
(assert (not (= (_ bv3 8) (_ bv7 8))))
(assert (not (= x16 x26)))
(assert (not (= x16 x36)))
(assert (not (= x16 x46)))
(assert (not (= x16 x56)))
(assert (not (= x16 x66)))
(assert (not (= x16 x76)))
(assert (not (= x16 (_ bv7 8))))
(assert (not (= x26 x36)))
(assert (not (= x26 x46)))
(assert (not (= x26 x56)))
(assert (not (= x26 x66)))
(assert (not (= x26 x76)))
(assert (not (= x26 (_ bv7 8))))
(assert (not (= x36 x46)))
(assert (not (= x36 x56)))
(assert (not (= x36 x66)))
(assert (not (= x36 x76)))
(assert (not (= x36 (_ bv7 8))))
(assert (not (= x46 x56)))
(assert (not (= x46 x66)))
(assert (not (= x46 x76)))
(assert (not (= x46 (_ bv7 8))))
(assert (not (= x56 x66)))
(assert (not (= x56 x76)))
(assert (not (= x56 (_ bv7 8))))
(assert (not (= x66 x76)))
(assert (not (= x66 (_ bv7 8))))
(assert (not (= x76 (_ bv7 8))))
(assert (not (= (_ bv2 8) x17)))
(assert (not (= (_ bv2 8) x27)))
(assert (not (= (_ bv2 8) x37)))
(assert (not (= (_ bv2 8) (_ bv7 8))))
(assert (not (= (_ bv2 8) x57)))
(assert (not (= (_ bv2 8) (_ bv5 8))))
(assert (not (= (_ bv2 8) (_ bv8 8))))
(assert (not (= (_ bv2 8) (_ bv4 8))))
(assert (not (= x17 x27)))
(assert (not (= x17 x37)))
(assert (not (= x17 (_ bv7 8))))
(assert (not (= x17 x57)))
(assert (not (= x17 (_ bv5 8))))
(assert (not (= x17 (_ bv8 8))))
(assert (not (= x17 (_ bv4 8))))
(assert (not (= x27 x37)))
(assert (not (= x27 (_ bv7 8))))
(assert (not (= x27 x57)))
(assert (not (= x27 (_ bv5 8))))
(assert (not (= x27 (_ bv8 8))))
(assert (not (= x27 (_ bv4 8))))
(assert (not (= x37 (_ bv7 8))))
(assert (not (= x37 x57)))
(assert (not (= x37 (_ bv5 8))))
(assert (not (= x37 (_ bv8 8))))
(assert (not (= x37 (_ bv4 8))))
(assert (not (= (_ bv7 8) x57)))
(assert (not (= (_ bv7 8) (_ bv5 8))))
(assert (not (= (_ bv7 8) (_ bv8 8))))
(assert (not (= (_ bv7 8) (_ bv4 8))))
(assert (not (= x57 (_ bv5 8))))
(assert (not (= x57 (_ bv8 8))))
(assert (not (= x57 (_ bv4 8))))
(assert (not (= (_ bv5 8) (_ bv8 8))))
(assert (not (= (_ bv5 8) (_ bv4 8))))
(assert (not (= (_ bv8 8) (_ bv4 8))))
(assert (not (= (_ bv4 8) x18)))
(assert (not (= (_ bv4 8) x28)))
(assert (not (= (_ bv4 8) (_ bv5 8))))
(assert (not (= (_ bv4 8) (_ bv1 8))))
(assert (not (= (_ bv4 8) x58)))
(assert (not (= (_ bv4 8) x68)))
(assert (not (= (_ bv4 8) (_ bv6 8))))
(assert (not (= (_ bv4 8) (_ bv3 8))))
(assert (not (= x18 x28)))
(assert (not (= x18 (_ bv5 8))))
(assert (not (= x18 (_ bv1 8))))
(assert (not (= x18 x58)))
(assert (not (= x18 x68)))
(assert (not (= x18 (_ bv6 8))))
(assert (not (= x18 (_ bv3 8))))
(assert (not (= x28 (_ bv5 8))))
(assert (not (= x28 (_ bv1 8))))
(assert (not (= x28 x58)))
(assert (not (= x28 x68)))
(assert (not (= x28 (_ bv6 8))))
(assert (not (= x28 (_ bv3 8))))
(assert (not (= (_ bv5 8) (_ bv1 8))))
(assert (not (= (_ bv5 8) x58)))
(assert (not (= (_ bv5 8) x68)))
(assert (not (= (_ bv5 8) (_ bv6 8))))
(assert (not (= (_ bv5 8) (_ bv3 8))))
(assert (not (= (_ bv1 8) x58)))
(assert (not (= (_ bv1 8) x68)))
(assert (not (= (_ bv1 8) (_ bv6 8))))
(assert (not (= (_ bv1 8) (_ bv3 8))))
(assert (not (= x58 x68)))
(assert (not (= x58 (_ bv6 8))))
(assert (not (= x58 (_ bv3 8))))
(assert (not (= x68 (_ bv6 8))))
(assert (not (= x68 (_ bv3 8))))
(assert (not (= (_ bv6 8) (_ bv3 8))))
(assert (not (= x00 x01)))
(assert (not (= x00 x02)))
(assert (not (= x00 (_ bv5 8))))
(assert (not (= x00 x11)))
(assert (not (= x00 (_ bv2 8))))
(assert (not (= x00 (_ bv1 8))))
(assert (not (= x00 x21)))
(assert (not (= x00 x22)))
(assert (not (= x01 x02)))
(assert (not (= x01 (_ bv5 8))))
(assert (not (= x01 x11)))
(assert (not (= x01 (_ bv2 8))))
(assert (not (= x01 (_ bv1 8))))
(assert (not (= x01 x21)))
(assert (not (= x01 x22)))
(assert (not (= x02 (_ bv5 8))))
(assert (not (= x02 x11)))
(assert (not (= x02 (_ bv2 8))))
(assert (not (= x02 (_ bv1 8))))
(assert (not (= x02 x21)))
(assert (not (= x02 x22)))
(assert (not (= (_ bv5 8) x11)))
(assert (not (= (_ bv5 8) (_ bv2 8))))
(assert (not (= (_ bv5 8) (_ bv1 8))))
(assert (not (= (_ bv5 8) x21)))
(assert (not (= (_ bv5 8) x22)))
(assert (not (= x11 (_ bv2 8))))
(assert (not (= x11 (_ bv1 8))))
(assert (not (= x11 x21)))
(assert (not (= x11 x22)))
(assert (not (= (_ bv2 8) (_ bv1 8))))
(assert (not (= (_ bv2 8) x21)))
(assert (not (= (_ bv2 8) x22)))
(assert (not (= (_ bv1 8) x21)))
(assert (not (= (_ bv1 8) x22)))
(assert (not (= x21 x22)))
(assert (not (= x03 x04)))
(assert (not (= x03 (_ bv9 8))))
(assert (not (= x03 x13)))
(assert (not (= x03 x14)))
(assert (not (= x03 (_ bv6 8))))
(assert (not (= x03 x23)))
(assert (not (= x03 (_ bv8 8))))
(assert (not (= x03 (_ bv4 8))))
(assert (not (= x04 (_ bv9 8))))
(assert (not (= x04 x13)))
(assert (not (= x04 x14)))
(assert (not (= x04 (_ bv6 8))))
(assert (not (= x04 x23)))
(assert (not (= x04 (_ bv8 8))))
(assert (not (= x04 (_ bv4 8))))
(assert (not (= (_ bv9 8) x13)))
(assert (not (= (_ bv9 8) x14)))
(assert (not (= (_ bv9 8) (_ bv6 8))))
(assert (not (= (_ bv9 8) x23)))
(assert (not (= (_ bv9 8) (_ bv8 8))))
(assert (not (= (_ bv9 8) (_ bv4 8))))
(assert (not (= x13 x14)))
(assert (not (= x13 (_ bv6 8))))
(assert (not (= x13 x23)))
(assert (not (= x13 (_ bv8 8))))
(assert (not (= x13 (_ bv4 8))))
(assert (not (= x14 (_ bv6 8))))
(assert (not (= x14 x23)))
(assert (not (= x14 (_ bv8 8))))
(assert (not (= x14 (_ bv4 8))))
(assert (not (= (_ bv6 8) x23)))
(assert (not (= (_ bv6 8) (_ bv8 8))))
(assert (not (= (_ bv6 8) (_ bv4 8))))
(assert (not (= x23 (_ bv8 8))))
(assert (not (= x23 (_ bv4 8))))
(assert (not (= (_ bv8 8) (_ bv4 8))))
(assert (not (= (_ bv3 8) (_ bv2 8))))
(assert (not (= (_ bv3 8) (_ bv4 8))))
(assert (not (= (_ bv3 8) x16)))
(assert (not (= (_ bv3 8) x17)))
(assert (not (= (_ bv3 8) x18)))
(assert (not (= (_ bv3 8) x26)))
(assert (not (= (_ bv3 8) x27)))
(assert (not (= (_ bv3 8) x28)))
(assert (not (= (_ bv2 8) (_ bv4 8))))
(assert (not (= (_ bv2 8) x16)))
(assert (not (= (_ bv2 8) x17)))
(assert (not (= (_ bv2 8) x18)))
(assert (not (= (_ bv2 8) x26)))
(assert (not (= (_ bv2 8) x27)))
(assert (not (= (_ bv2 8) x28)))
(assert (not (= (_ bv4 8) x16)))
(assert (not (= (_ bv4 8) x17)))
(assert (not (= (_ bv4 8) x18)))
(assert (not (= (_ bv4 8) x26)))
(assert (not (= (_ bv4 8) x27)))
(assert (not (= (_ bv4 8) x28)))
(assert (not (= x16 x17)))
(assert (not (= x16 x18)))
(assert (not (= x16 x26)))
(assert (not (= x16 x27)))
(assert (not (= x16 x28)))
(assert (not (= x17 x18)))
(assert (not (= x17 x26)))
(assert (not (= x17 x27)))
(assert (not (= x17 x28)))
(assert (not (= x18 x26)))
(assert (not (= x18 x27)))
(assert (not (= x18 x28)))
(assert (not (= x26 x27)))
(assert (not (= x26 x28)))
(assert (not (= x27 x28)))
(assert (not (= x30 x31)))
(assert (not (= x30 x32)))
(assert (not (= x30 (_ bv8 8))))
(assert (not (= x30 x41)))
(assert (not (= x30 (_ bv6 8))))
(assert (not (= x30 (_ bv9 8))))
(assert (not (= x30 x51)))
(assert (not (= x30 x52)))
(assert (not (= x31 x32)))
(assert (not (= x31 (_ bv8 8))))
(assert (not (= x31 x41)))
(assert (not (= x31 (_ bv6 8))))
(assert (not (= x31 (_ bv9 8))))
(assert (not (= x31 x51)))
(assert (not (= x31 x52)))
(assert (not (= x32 (_ bv8 8))))
(assert (not (= x32 x41)))
(assert (not (= x32 (_ bv6 8))))
(assert (not (= x32 (_ bv9 8))))
(assert (not (= x32 x51)))
(assert (not (= x32 x52)))
(assert (not (= (_ bv8 8) x41)))
(assert (not (= (_ bv8 8) (_ bv6 8))))
(assert (not (= (_ bv8 8) (_ bv9 8))))
(assert (not (= (_ bv8 8) x51)))
(assert (not (= (_ bv8 8) x52)))
(assert (not (= x41 (_ bv6 8))))
(assert (not (= x41 (_ bv9 8))))
(assert (not (= x41 x51)))
(assert (not (= x41 x52)))
(assert (not (= (_ bv6 8) (_ bv9 8))))
(assert (not (= (_ bv6 8) x51)))
(assert (not (= (_ bv6 8) x52)))
(assert (not (= (_ bv9 8) x51)))
(assert (not (= (_ bv9 8) x52)))
(assert (not (= x51 x52)))
(assert (not (= (_ bv7 8) x34)))
(assert (not (= (_ bv7 8) x35)))
(assert (not (= (_ bv7 8) x43)))
(assert (not (= (_ bv7 8) x44)))
(assert (not (= (_ bv7 8) x45)))
(assert (not (= (_ bv7 8) x53)))
(assert (not (= (_ bv7 8) (_ bv1 8))))
(assert (not (= (_ bv7 8) (_ bv8 8))))
(assert (not (= x34 x35)))
(assert (not (= x34 x43)))
(assert (not (= x34 x44)))
(assert (not (= x34 x45)))
(assert (not (= x34 x53)))
(assert (not (= x34 (_ bv1 8))))
(assert (not (= x34 (_ bv8 8))))
(assert (not (= x35 x43)))
(assert (not (= x35 x44)))
(assert (not (= x35 x45)))
(assert (not (= x35 x53)))
(assert (not (= x35 (_ bv1 8))))
(assert (not (= x35 (_ bv8 8))))
(assert (not (= x43 x44)))
(assert (not (= x43 x45)))
(assert (not (= x43 x53)))
(assert (not (= x43 (_ bv1 8))))
(assert (not (= x43 (_ bv8 8))))
(assert (not (= x44 x45)))
(assert (not (= x44 x53)))
(assert (not (= x44 (_ bv1 8))))
(assert (not (= x44 (_ bv8 8))))
(assert (not (= x45 x53)))
(assert (not (= x45 (_ bv1 8))))
(assert (not (= x45 (_ bv8 8))))
(assert (not (= x53 (_ bv1 8))))
(assert (not (= x53 (_ bv8 8))))
(assert (not (= (_ bv1 8) (_ bv8 8))))
(assert (not (= x36 x37)))
(assert (not (= x36 (_ bv5 8))))
(assert (not (= x36 x46)))
(assert (not (= x36 (_ bv7 8))))
(assert (not (= x36 (_ bv1 8))))
(assert (not (= x36 x56)))
(assert (not (= x36 x57)))
(assert (not (= x36 x58)))
(assert (not (= x37 (_ bv5 8))))
(assert (not (= x37 x46)))
(assert (not (= x37 (_ bv7 8))))
(assert (not (= x37 (_ bv1 8))))
(assert (not (= x37 x56)))
(assert (not (= x37 x57)))
(assert (not (= x37 x58)))
(assert (not (= (_ bv5 8) x46)))
(assert (not (= (_ bv5 8) (_ bv7 8))))
(assert (not (= (_ bv5 8) (_ bv1 8))))
(assert (not (= (_ bv5 8) x56)))
(assert (not (= (_ bv5 8) x57)))
(assert (not (= (_ bv5 8) x58)))
(assert (not (= x46 (_ bv7 8))))
(assert (not (= x46 (_ bv1 8))))
(assert (not (= x46 x56)))
(assert (not (= x46 x57)))
(assert (not (= x46 x58)))
(assert (not (= (_ bv7 8) (_ bv1 8))))
(assert (not (= (_ bv7 8) x56)))
(assert (not (= (_ bv7 8) x57)))
(assert (not (= (_ bv7 8) x58)))
(assert (not (= (_ bv1 8) x56)))
(assert (not (= (_ bv1 8) x57)))
(assert (not (= (_ bv1 8) x58)))
(assert (not (= x56 x57)))
(assert (not (= x56 x58)))
(assert (not (= x57 x58)))
(assert (not (= (_ bv7 8) x61)))
(assert (not (= (_ bv7 8) (_ bv1 8))))
(assert (not (= (_ bv7 8) (_ bv4 8))))
(assert (not (= (_ bv7 8) (_ bv9 8))))
(assert (not (= (_ bv7 8) x72)))
(assert (not (= (_ bv7 8) (_ bv2 8))))
(assert (not (= (_ bv7 8) x81)))
(assert (not (= (_ bv7 8) (_ bv8 8))))
(assert (not (= x61 (_ bv1 8))))
(assert (not (= x61 (_ bv4 8))))
(assert (not (= x61 (_ bv9 8))))
(assert (not (= x61 x72)))
(assert (not (= x61 (_ bv2 8))))
(assert (not (= x61 x81)))
(assert (not (= x61 (_ bv8 8))))
(assert (not (= (_ bv1 8) (_ bv4 8))))
(assert (not (= (_ bv1 8) (_ bv9 8))))
(assert (not (= (_ bv1 8) x72)))
(assert (not (= (_ bv1 8) (_ bv2 8))))
(assert (not (= (_ bv1 8) x81)))
(assert (not (= (_ bv1 8) (_ bv8 8))))
(assert (not (= (_ bv4 8) (_ bv9 8))))
(assert (not (= (_ bv4 8) x72)))
(assert (not (= (_ bv4 8) (_ bv2 8))))
(assert (not (= (_ bv4 8) x81)))
(assert (not (= (_ bv4 8) (_ bv8 8))))
(assert (not (= (_ bv9 8) x72)))
(assert (not (= (_ bv9 8) (_ bv2 8))))
(assert (not (= (_ bv9 8) x81)))
(assert (not (= (_ bv9 8) (_ bv8 8))))
(assert (not (= x72 (_ bv2 8))))
(assert (not (= x72 x81)))
(assert (not (= x72 (_ bv8 8))))
(assert (not (= (_ bv2 8) x81)))
(assert (not (= (_ bv2 8) (_ bv8 8))))
(assert (not (= x81 (_ bv8 8))))
(assert (not (= x63 x64)))
(assert (not (= x63 x65)))
(assert (not (= x63 (_ bv5 8))))
(assert (not (= x63 (_ bv2 8))))
(assert (not (= x63 x75)))
(assert (not (= x63 (_ bv6 8))))
(assert (not (= x63 x84)))
(assert (not (= x63 x85)))
(assert (not (= x64 x65)))
(assert (not (= x64 (_ bv5 8))))
(assert (not (= x64 (_ bv2 8))))
(assert (not (= x64 x75)))
(assert (not (= x64 (_ bv6 8))))
(assert (not (= x64 x84)))
(assert (not (= x64 x85)))
(assert (not (= x65 (_ bv5 8))))
(assert (not (= x65 (_ bv2 8))))
(assert (not (= x65 x75)))
(assert (not (= x65 (_ bv6 8))))
(assert (not (= x65 x84)))
(assert (not (= x65 x85)))
(assert (not (= (_ bv5 8) (_ bv2 8))))
(assert (not (= (_ bv5 8) x75)))
(assert (not (= (_ bv5 8) (_ bv6 8))))
(assert (not (= (_ bv5 8) x84)))
(assert (not (= (_ bv5 8) x85)))
(assert (not (= (_ bv2 8) x75)))
(assert (not (= (_ bv2 8) (_ bv6 8))))
(assert (not (= (_ bv2 8) x84)))
(assert (not (= (_ bv2 8) x85)))
(assert (not (= x75 (_ bv6 8))))
(assert (not (= x75 x84)))
(assert (not (= x75 x85)))
(assert (not (= (_ bv6 8) x84)))
(assert (not (= (_ bv6 8) x85)))
(assert (not (= x84 x85)))
(assert (not (= x66 (_ bv5 8))))
(assert (not (= x66 x68)))
(assert (not (= x66 x76)))
(assert (not (= x66 (_ bv8 8))))
(assert (not (= x66 (_ bv6 8))))
(assert (not (= x66 (_ bv7 8))))
(assert (not (= x66 (_ bv4 8))))
(assert (not (= x66 (_ bv3 8))))
(assert (not (= (_ bv5 8) x68)))
(assert (not (= (_ bv5 8) x76)))
(assert (not (= (_ bv5 8) (_ bv8 8))))
(assert (not (= (_ bv5 8) (_ bv6 8))))
(assert (not (= (_ bv5 8) (_ bv7 8))))
(assert (not (= (_ bv5 8) (_ bv4 8))))
(assert (not (= (_ bv5 8) (_ bv3 8))))
(assert (not (= x68 x76)))
(assert (not (= x68 (_ bv8 8))))
(assert (not (= x68 (_ bv6 8))))
(assert (not (= x68 (_ bv7 8))))
(assert (not (= x68 (_ bv4 8))))
(assert (not (= x68 (_ bv3 8))))
(assert (not (= x76 (_ bv8 8))))
(assert (not (= x76 (_ bv6 8))))
(assert (not (= x76 (_ bv7 8))))
(assert (not (= x76 (_ bv4 8))))
(assert (not (= x76 (_ bv3 8))))
(assert (not (= (_ bv8 8) (_ bv6 8))))
(assert (not (= (_ bv8 8) (_ bv7 8))))
(assert (not (= (_ bv8 8) (_ bv4 8))))
(assert (not (= (_ bv8 8) (_ bv3 8))))
(assert (not (= (_ bv6 8) (_ bv7 8))))
(assert (not (= (_ bv6 8) (_ bv4 8))))
(assert (not (= (_ bv6 8) (_ bv3 8))))
(assert (not (= (_ bv7 8) (_ bv4 8))))
(assert (not (= (_ bv7 8) (_ bv3 8))))
(assert (not (= (_ bv4 8) (_ bv3 8))))
(check-sat)
(exit)
